falcon_planner/lkh_mtsp_solver/resource/amtsp3_4.atsp
NAME : pairopt
TYPE : ACVRP
DIMENSION : 7
EDGE_WEIGHT_TYPE : EXPLICIT
EDGE_WEIGHT_FORMAT : FULL_MATRIX
CAPACITY : 15000
VEHICLES : 2
EDGE_WEIGHT_SECTION
100000 -100000 -100000 100000 100000 100000 100000 
100000 100000 1000000 51215 51395 50348 168 
100000 1000000 100000 50323 50180 50957 51167 
0 51215 50323 100000 250 912 102121 
0 51395 50180 250 100000 1172 102500 
0 50348 50957 912 1172 100000 373 
0 168 51167 102121 102500 373 100000 
DEMAND_SECTION
1 0
2 0
3 0
4 5000
5 5000
6 5000
7 5000
DEPOT_SECTION
1
EOF