falcon_planner/lkh_mtsp_solver/resource/amtsp3_4.tour
NAME : pairopt.-149029.tour
COMMENT : Length = -149029
COMMENT : Found by LKH-3 [Keld Helsgaun] Wed Mar  5 14:27:43 2025
TYPE : TOUR
DIMENSION : 8
TOUR_SECTION
1
3
5
4
8
2
7
6
-1
EOF
